NAME : random_n30_20160530
COMMENT : Random Generate
TYPE : TSP
DIMENSION: 30
EDGE_WEIGHT_TYPE : EUC_2D
NODE_COORD_SECTION
  1  0.24  1.90
  2  1.62 -0.02
  3  0.48  0.65
  4  0.60  1.89
  5 -0.71 -1.68
  6 -1.74 -0.12
  7 -0.23 -0.29
  8  0.55  0.89
  9  0.28  0.89
 10 -0.07  0.01
 11  0.80  1.01
 12 -0.83 -1.48
 13 -0.40  0.47
 14 -0.29 -0.46
 15 -2.09  0.12
 16 -0.71 -2.34
 17 -0.03  0.00
 18  0.03  0.71
 19 -0.83  1.03
 20 -0.25 -1.04
 21  0.07  1.03
 22  0.16  1.88
 23  0.41 -2.23
 24 -1.10  1.28
 25  0.39  2.06
 26  1.54 -0.36
 27 -0.67 -0.47
 28  0.20  1.27
 29  0.42 -0.58
 30  0.65 -0.42
EOF
